
%FILE DATA:	Soccer Computational Problem for MiniZinc Models	%
%AUTHOR:	Jack Wall	%
%CONTACT:  	116397063@umail.ucc.ie			%
%LAST UPDATE:	02/27/2020, 19:27:34						%
%DESCRIPTION: 	77 games played with 33 games left				%


n=11; %number of teams

%Games to play
games=[|11,8|2,3|8,5|1,4|6,7|1,8|10,11|1,11|5,7|5,2|10,4|8,10|8,9|9,5|2,11|7,2|4,1|10,3|4,2|6,11|4,11|2,9|11,2|5,8|4,7|11,7|3,6|7,8|8,4|6,8|5,9|3,1|4,9|];

%Initial points
iPoints=[17,18,28,12,17,25,12,14,19,30,16];

%POSITION CONSTRAINTS
% [|teamID, operator, position|...]
% operators index:
%  1 for =  operator
%  2 for >  operator
%  3 for >= operator
%  4 for <  operator
%  5 for <= operator
positionConstraints=[|10,3,1|3,4,3|6,2,2|5,2,3|11,3,5|];